multiobj/instances/uniform/Ter.5.2.-0.40.1.in
5 2
0 771 544 977 248 
771 0 574 244 593 
544 574 0 691 433 
977 244 691 0 73 
248 593 433 73 0 
0 753 943 862 842 
753 0 327 409 668 
943 327 0 912 701 
862 409 912 0 441 
842 668 701 441 0 
0 791 99 430 432 
791 0 728 316 327 
99 728 0 22 528 
430 316 22 0 593 
432 327 528 593 0 
