multiobj/solutions/Ter.5.2.-0.40.1.out
7 2
4 0 3 1 2 
6179196 4977638 
4 0 1 3 2 
6236380 4478864 
4 3 2 0 1 
6406850 4254474 
4 0 1 2 3 
6614334 4152990 
4 0 2 3 1 
6779948 3892896 
4 3 1 0 2 
6957858 3530186 
3 4 0 1 2 
7437874 3423994 
